GLPSOL--GLPK LP/MIP Solver 5.0
Parameter(s) specified in the command line:
 --lp ../modeles/10_14.lp --log 10_14.log
Reading problem data from '../modeles/10_14.lp'...
181 rows, 300 columns, 1010 non-zeros
140 integer variables, all of which are binary
497 lines were read
GLPK Integer Optimizer 5.0
181 rows, 300 columns, 1010 non-zeros
140 integer variables, all of which are binary
Preprocessing...
140 constraint coefficient(s) were reduced
181 rows, 290 columns, 1000 non-zeros
140 integer variables, all of which are binary
Scaling...
 A: min|aij| =  8.163e-02  max|aij| =  4.000e+00  ratio =  4.900e+01
GM: min|aij| =  3.780e-01  max|aij| =  2.646e+00  ratio =  7.000e+00
EQ: min|aij| =  1.429e-01  max|aij| =  1.000e+00  ratio =  7.000e+00
2N: min|aij| =  1.250e-01  max|aij| =  1.361e+00  ratio =  1.089e+01
Constructing initial basis...
Size of triangular part is 181
Solving LP relaxation...
GLPK Simplex Optimizer 5.0
181 rows, 290 columns, 1000 non-zeros
      0: obj =   2.000000000e+01 inf =   4.950e+01 (21)
     69: obj =  -3.071428571e+00 inf =   0.000e+00 (0)
*    79: obj =  -3.071428571e+00 inf =   0.000e+00 (0)
OPTIMAL LP SOLUTION FOUND
Integer optimization begins...
Long-step dual simplex will be used
+    79: mip =     not found yet >=              -inf        (1; 0)
+    81: >>>>>  -3.071428571e+00 >=  -3.071428571e+00   0.0% (2; 0)
+    81: mip =  -3.071428571e+00 >=     tree is empty   0.0% (0; 3)
INTEGER OPTIMAL SOLUTION FOUND
Time used:   0.0 secs
Memory used: 0.5 Mb (501018 bytes)
